num_staff = 4;
work_load = [100, 10, 100, 100];
num_days = 100;
unavailable = [
    {1, 2, 3, 4, 5, 6, 7, 8, 9, 10, 11, 12, 13, 14, 15, 16, 17, 18, 19},
    {1, 3, 10, 11, 20, 21},
    {23, 24, 37, 38, 41, 42},
    {}
];
fixed = [
    {},
    {},
    {1},
    {}
];
weekend_offset = 2;
adj_days_str = 1;
wed_before_weekend_str = 1;
